(set-info :source  loris-7.ddns.comp.nus.edu.sg/~project/hip/) 
;Variables declarations
(declare-fun na () Int)
(declare-fun nb () Int)
(declare-fun bha () Int)
(declare-fun nr_5546 () Int)
(declare-fun nl_5543 () Int)
(declare-fun bhl_5544 () Int)
(declare-fun bhr_5547 () Int)
(declare-fun nc () Int)
(declare-fun nd () Int)
(declare-fun bha_5523 () Int)
(declare-fun res () Int)
(declare-fun nb_5521 () Int)
(declare-fun na_5520 () Int)
(declare-fun nc_5522 () Int)
(declare-fun flted_22_5582 () Int)
(declare-fun flted_22_5581 () Int)
(declare-fun flted_22_5583 () Int)
(declare-fun v_node_44_5107_primed () Int)
;Relations declarations
;Axioms assertions
;Antecedent
(assert (<= 1 bha_5523))
(assert (<= 1 bha))
(assert (<= 0 na))
(assert (<= 0 nb))
(assert (<= 0 nc))
(assert (<= 0 nd))
(assert (= nl_5543 na))
(assert (= bhl_5544 bha))
(assert (= nr_5546 nb))
(assert (= bhr_5547 bha))
(assert (= bhr_5547 bhl_5544))
(assert (= na_5520 (+ (+ nr_5546 1) nl_5543)))
(assert (= bhl_5544 bha_5523))
(assert (= bhr_5547 bha_5523))
(assert (= nb_5521 nc))
(assert (= nc_5522 nd))
(assert (= flted_22_5582 0))
(assert (= flted_22_5581 (+ 1 bha_5523)))
(assert (<= 0 na_5520))
(assert (<= 0 nb_5521))
(assert (<= 0 nc_5522))
(assert (= res v_node_44_5107_primed))
(assert (= flted_22_5583 (+ (+ (+ 2 nb_5521) na_5520) nc_5522)))
(assert (or (and (and (and (= flted_22_5582 0) (<= 2 flted_22_5581)) (<= 1 flted_22_5583)) (> v_node_44_5107_primed 0)) (or (and (and (and (< v_node_44_5107_primed 1) (= flted_22_5583 0)) (= flted_22_5581 1)) (= flted_22_5582 0)) (and (and (and (= flted_22_5582 1) (<= 1 flted_22_5581)) (<= 1 flted_22_5583)) (> v_node_44_5107_primed 0)))))
;Negation of Consequence
(assert (not (or (= flted_22_5583 0) (< v_node_44_5107_primed 1))))
(check-sat)